; aiosonic :: corpus-study/repo_src/aiosonic/aiosonic/pools.py :: wait_for at acquire:121 :: naive encoding (verdict: unsat)
; Generated by snf-pipeline (encoder.py) -- run with any
; SMT-LIB2-compliant solver, e.g. `z3 aiosonic__corpus-study_repo_src_aiosonic_aiosonic_pools.py__waitfor_acquire_L121__naive.smt2`
; benchmark generated from python API
(set-info :status unknown)
(declare-fun timeout_fires () Bool)
(declare-fun cleanup_ran () Bool)
(assert
 (= timeout_fires false))
(assert
 (let (($x36 (not cleanup_ran)))
(and timeout_fires $x36)))
(check-sat)
